cost: 1100.70
Route 1:           0   47   49   46   44   45   48   51   50   52   31   35   37   38   39   36   34   33   32   29   24    0
Route 2:           0   20   22   25   27   30   28   26   23   21    0
Route 3:           0   43   42   41   40   59   60   58   56   53   54   57   55   68    0
Route 4:           0   67   65   63   62   74   72   61   64   66   69    0
Route 5:           0   75    1    2   99  100   97   93   92   94   95   96   98   91    0
Route 6:           0   90   87   86   89   88   85   84   83   82   81   78   76   71   70   73   77   79   80    0
Route 7:           0    5    3    7    4    6    8    9   12   14   16   15   19   18   17   13   11   10    0
